p cnf 12 28
-6 -9 0
-5 -8 0
-4 -7 0
-9 -12 0
-8 -11 0
-7 -10 0
-6 -12 0
-5 -11 0
-4 -10 0
-3 -6 0
-2 -5 0
-1 -4 0
10 11 12 0
-10 -11 0
-10 -12 0
-11 -12 0
7 8 9 0
-7 -8 0
-7 -9 0
-8 -9 0
4 5 6 0
-4 -5 0
-4 -6 0
-5 -6 0
1 2 3 0
-1 -2 0
-1 -3 0
-2 -3 0
